9   8   4
4   2   1   17   2   17   2   3   24   4   24   2   5   23   6   23   2   7   22   8   22   
4   2   1   28   2   28   2   3   10   4   10   2   5   29   6   29   2   7   26   8   26   
4   2   1   25   2   25   2   3   24   4   24   2   5   26   6   26   2   7   19   8   19   
4   2   1   15   2   15   2   3   19   4   19   2   5   13   6   13   2   7   18   8   18   
4   2   1   26   2   26   2   3   25   4   25   2   5   14   6   14   2   7   23   8   23   
4   2   1   16   2   16   2   3   24   4   24   2   5   18   6   18   2   7   17   8   17   
4   2   1   16   2   16   2   3   20   4   20   2   5   23   6   23   2   7   16   8   16   
4   2   1   23   2   23   2   3   13   4   13   2   5   22   6   22   2   7   19   8   19   
4   2   1   30   2   30   2   3   22   4   22   2   5   30   6   30   2   7   25   8   25   
